Si2 <s> Si_0.6  </s>
  1.00000000000000
     3.84019800000000     0.00000000000000     0.00000000000000
     1.92009900000000     3.32571000000000     0.00000000000000
     0.00000000000000    -2.21713800000000     3.13550900000000
  Si_0.6 
  2     
Direct
     0.00000000000000      0.00000000000000      0.00000000000000   
     0.75000000000000      0.50000000000000      0.75000000000000   
