MLIP output to VASP
1
          1.84809       1.84809      -1.84809
          3.40424             0       3.40424
          3.40424      -3.40424            -0
 1 2
cart
          8.65658      -1.55615       1.55615
          3.65066      0.246412     -0.246412
          5.00593      -1.80256       1.80256
